This is Ipopt version 3.10.0, running with linear solver ma27.

Number of nonzeros in equality constraint Jacobian...:        0
Number of nonzeros in inequality constraint Jacobian.:       48
Number of nonzeros in Lagrangian Hessian.............:        0

Total number of variables............................:        6
                     variables with only lower bounds:        0
                variables with lower and upper bounds:        6
                     variables with only upper bounds:        0
Total number of equality constraints.................:        0
Total number of inequality constraints...............:        8
        inequality constraints with only lower bounds:        0
   inequality constraints with lower and upper bounds:        0
        inequality constraints with only upper bounds:        8

iter    objective    inf_pr   inf_du lg(mu)  ||d||  lg(rg) alpha_du alpha_pr  ls
   0  7.6980530e+00 1.20e+00 1.63e+00   0.0 0.00e+00    -  0.00e+00 0.00e+00   0
   1  8.5446565e+00 3.37e-01 2.03e+00  -0.4 1.54e+00    -  5.24e-01 6.25e-01H  1
   2  8.4799579e+00 3.24e-01 1.90e+00  -0.9 5.12e-01    -  9.78e-01 4.17e-01h  1
   3  9.6405384e+00 4.99e-02 1.18e+00  -1.2 1.18e+00    -  8.88e-01 7.54e-01H  1
   4  1.0360049e+01 0.00e+00 1.09e+00  -0.8 2.86e-01    -  7.76e-01 1.00e+00f  1
   5  1.0134583e+01 0.00e+00 1.77e-01  -2.0 1.43e-01    -  9.93e-01 1.00e+00h  1
   6  1.0112743e+01 0.00e+00 4.12e-01  -2.2 3.44e-01    -  1.00e+00 1.00e+00H  1
   7  1.0119908e+01 0.00e+00 9.15e-01  -2.0 5.57e-01    -  1.00e+00 1.00e+00f  1
   8  9.9376827e+00 1.14e-01 8.90e-01  -2.1 7.45e-01    -  1.00e+00 6.86e-01h  1
   9  9.6576392e+00 6.35e-03 1.52e+00  -2.6 5.31e-01    -  1.00e+00 1.00e+00h  1
iter    objective    inf_pr   inf_du lg(mu)  ||d||  lg(rg) alpha_du alpha_pr  ls
  10  9.8210545e+00 3.61e-03 2.15e+00  -2.3 2.83e-01    -  1.00e+00 9.24e-01H  1
  11  9.6030447e+00 8.67e-03 1.86e-01  -2.1 2.24e-01    -  1.00e+00 1.00e+00f  1
  12  9.6627700e+00 2.97e-04 3.21e-01  -3.0 5.02e-02    -  1.00e+00 9.75e-01h  1
  13  9.6167222e+00 1.15e-03 5.22e-01  -3.9 2.69e-01    -  1.00e+00 6.80e-01h  1
  14  9.6167631e+00 1.32e-04 1.87e-01  -3.3 2.73e-02    -  1.00e+00 1.00e+00h  1
  15  9.6146696e+00 3.68e-04 1.79e-02  -4.8 1.29e-02    -  1.00e+00 9.83e-01h  1
  16  9.6147816e+00 6.42e-05 1.18e-02  -6.3 2.06e-03    -  1.00e+00 1.00e+00h  1
  17  9.6147927e+00 3.28e-05 2.27e-03  -8.2 1.07e-03    -  1.00e+00 1.00e+00h  1
  18  9.6148432e+00 9.97e-07 1.30e-03 -10.2 1.11e-04    -  1.00e+00 1.00e+00h  1

Number of Iterations....: 18

                                   (scaled)                 (unscaled)
Objective...............:   9.6148431741303106e+00    9.6148431741303106e+00
Dual infeasibility......:   1.3049606779183020e-03    1.3049606779183020e-03
Constraint violation....:   9.9678328665934301e-07    9.9678328665934301e-07
Complementarity.........:   6.6649229679399599e-11    6.6649229679399599e-11
Overall NLP error.......:   1.3049606779183020e-03    1.3049606779183020e-03


Number of objective function evaluations             = 23
Number of objective gradient evaluations             = 19
Number of equality constraint evaluations            = 0
Number of inequality constraint evaluations          = 23
Number of equality constraint Jacobian evaluations   = 0
Number of inequality constraint Jacobian evaluations = 19
Number of Lagrangian Hessian evaluations             = 0
Total CPU secs in IPOPT (w/o function evaluations)   =      0.036
Total CPU secs in NLP function evaluations           =   4234.578

EXIT: Stopping optimization at current point as requested by user.
